5 5
6 3 2 15 1 18 5 10 4 3 15 1 19 5 18 2 17 3 1 11 4 5 5 15 2 2 19 1 7 4 5 5 2 14 4 11 1 7 5 5 16 2 19 4 11 1 10 3 3
7 5 4 14 5 18 3 13 1 13 2 17 4 2 9 1 15 5 3 4 2 4 4 16 1 9 5 20 3 2 5 2 12 5 4 1 12 4 13 3 15 5 5 3 2 9 3 9 1 18 4 12 5 2 2 5 11 1 2 3 17 4 4 4 3 8 4 12 2 8 5 2
7 5 4 17 2 18 1 19 5 20 3 15 3 1 18 2 14 4 5 5 4 14 3 7 5 6 2 6 1 5 3 2 12 1 20 5 20 5 1 2 2 9 3 19 5 4 4 15 1 5 11 2 4 7 2 17
4 5 4 13 2 15 5 6 3 19 1 9 2 2 15 1 17 3 4 13 5 6 3 19 2 4 5 5 4
6 2 3 15 2 18 2 4 11 3 4 1 5 7 4 2 11 5 2 4 3 3 16 4 3 18 5 15 4 11 2 5 3 5 14 3 14 1 9